Version identifier: 20.1.0.0 | 2020-11-10 | 9bedb6d68
Tried aggregator 2 times.
MIP Presolve eliminated 1335 rows and 776 columns.
MIP Presolve modified 2594 coefficients.
Aggregator did 147 substitutions.
Reduced MIP has 1074 rows, 884 columns, and 3415 nonzeros.
Reduced MIP has 233 binaries, 651 generals, 0 SOSs, and 0 indicators.
Presolve time = 0.01 sec. (5.65 ticks)
Found incumbent of value 40.000000 after 0.02 sec. (9.65 ticks)
Probing fixed 30 vars, tightened 258 bounds.
Probing time = 0.00 sec. (1.00 ticks)
Tried aggregator 2 times.
Detecting symmetries...
MIP Presolve eliminated 450 rows and 34 columns.
MIP Presolve modified 60 coefficients.
Aggregator did 3 substitutions.
Reduced MIP has 621 rows, 847 columns, and 2026 nonzeros.
Reduced MIP has 348 binaries, 499 generals, 0 SOSs, and 0 indicators.
Presolve time = 0.01 sec. (2.94 ticks)
Probing time = 0.00 sec. (0.18 ticks)
Clique table members: 31.
MIP emphasis: balance optimality and feasibility.
MIP search method: dynamic search.
Parallel mode: deterministic, using up to 24 threads.
Root relaxation solution time = 0.00 sec. (1.74 ticks)

        Nodes                                         Cuts/
   Node  Left     Objective  IInf  Best Integer    Best Bound    ItCnt     Gap

*     0+    0                           40.0000        0.0000           100.00%
      0     0        0.0000    44       40.0000        0.0000      174  100.00%
      0     0        0.0800    74       40.0000     Cuts: 173      472   99.80%
*     0+    0                           14.0000        0.0800            99.43%
      0     0        1.0422   284       14.0000      Cuts: 81      674   92.56%
*     0+    0                           13.0000        1.0422            91.98%
      0     0        1.1007   286       13.0000     Cuts: 100      736   91.53%
      0     0        1.2676   279       13.0000      Cuts: 61      857   90.25%
      0     0        1.5000   246       13.0000      Cuts: 89      938   88.46%
      0     0        2.0000   252       13.0000      Cuts: 47     1017   84.62%
      0     0        2.0741   308       13.0000      Cuts: 71     1169   84.05%
      0     0        2.1111   308       13.0000      Cuts: 95     1239   83.76%
      0     0        2.2000   284       13.0000      Cuts: 70     1304   83.08%
*     0+    0                            9.0000        2.2000            75.56%
      0     0        cutoff              9.0000        9.0000     1357    0.00%
Elapsed time = 0.24 sec. (98.36 ticks, tree = 0.01 MB, solutions = 4)

Cover cuts applied:  9
Implied bound cuts applied:  30
Flow cuts applied:  6
Mixed integer rounding cuts applied:  32
Zero-half cuts applied:  148
Gomory fractional cuts applied:  14

Root node processing (before b&c):
  Real time             =    0.24 sec. (98.47 ticks)
Parallel b&c, 24 threads:
  Real time             =    0.00 sec. (0.00 ticks)
  Sync time (average)   =    0.00 sec.
  Wait time (average)   =    0.00 sec.
                          ------------
Total (root+branch&cut) =    0.24 sec. (98.47 ticks)

Solution status = Optimal
Solution LB = 9
Solution UB = 9
Runtime = 0.246308 seconds
	Command being timed: "/home/min/git_repos/CS598MEBProject/CNT-ILP/build/cnt -s 2 ./output/k6_n30/simC_c1_k6_n30_u3_s2_del02.input-left.cnp"
	User time (seconds): 2.51
	System time (seconds): 0.07
	Percent of CPU this job got: 918%
	Elapsed (wall clock) time (h:mm:ss or m:ss): 0:00.28
	Average shared text size (kbytes): 0
	Average unshared data size (kbytes): 0
	Average stack size (kbytes): 0
	Average total size (kbytes): 0
	Maximum resident set size (kbytes): 79916
	Average resident set size (kbytes): 0
	Major (requiring I/O) page faults: 0
	Minor (reclaiming a frame) page faults: 17650
	Voluntary context switches: 4312
	Involuntary context switches: 314
	Swaps: 0
	File system inputs: 0
	File system outputs: 16
	Socket messages sent: 0
	Socket messages received: 0
	Signals delivered: 0
	Page size (bytes): 4096
	Exit status: 0
